; DUP3 SWAP1 DUP3 SWAP1 DUP2 LT => DUP2 DUP1 DUP5 SWAP3 GT
(set-option :produce-proofs true)
; 
(set-info :status unknown)
(declare-fun storage_t ((_ BitVec 256) (_ BitVec 256) (_ BitVec 256) Int (_ BitVec 256)) (_ BitVec 256))
(declare-fun storage_s ((_ BitVec 256) (_ BitVec 256) (_ BitVec 256) Int (_ BitVec 256)) (_ BitVec 256))
(declare-fun exc_halt_t (Int) Bool)
(declare-fun exc_halt_s (Int) Bool)
(declare-fun stack_t ((_ BitVec 256) (_ BitVec 256) (_ BitVec 256) Int (_ BitVec 6)) (_ BitVec 256))
(declare-fun stack_s ((_ BitVec 256) (_ BitVec 256) (_ BitVec 256) Int (_ BitVec 6)) (_ BitVec 256))
(declare-fun sc_t (Int) (_ BitVec 6))
(declare-fun sc_s (Int) (_ BitVec 6))
(declare-fun used_gas_t ((_ BitVec 256) (_ BitVec 256) (_ BitVec 256) Int) Int)
(declare-fun used_gas_s ((_ BitVec 256) (_ BitVec 256) (_ BitVec 256) Int) Int)
(assert
 (exists ((x_0 (_ BitVec 256)) (x_1 (_ BitVec 256)) (x_2 (_ BitVec 256)) )(let (($x2858 (forall ((w (_ BitVec 256)) )(let ((?x7782 (storage_t x_0 x_1 x_2 5 w)))
 (let ((?x2156 (storage_s x_0 x_1 x_2 6 w)))
 (= ?x2156 ?x7782))))
 ))
 (let (($x886 (exc_halt_t 5)))
 (let (($x772 (exc_halt_s 6)))
 (let (($x889 (= $x772 $x886)))
 (let (($x4602 (forall ((n (_ BitVec 6)) )(let ((?x5739 (stack_t x_0 x_1 x_2 5 n)))
 (let ((?x7643 (stack_s x_0 x_1 x_2 6 n)))
 (let (($x9017 (= ?x7643 ?x5739)))
 (or (bvsle (sc_t 5) n) $x9017)))))
 ))
 (let ((?x919 (sc_t 5)))
 (let ((?x926 (sc_s 6)))
 (let (($x929 (= ?x926 ?x919)))
 (let ((?x11698 (used_gas_t x_0 x_1 x_2 0)))
 (let ((?x1263 (used_gas_s x_0 x_1 x_2 0)))
 (let (($x6506 (= ?x1263 ?x11698)))
 (let (($x8352 (forall ((w (_ BitVec 256)) )(let ((?x6896 (storage_t x_0 x_1 x_2 0 w)))
 (let ((?x4071 (storage_s x_0 x_1 x_2 0 w)))
 (= ?x4071 ?x6896))))
 ))
 (let (($x56 (exc_halt_t 0)))
 (let (($x57 (exc_halt_s 0)))
 (let (($x58 (= $x57 $x56)))
 (let (($x3034 (forall ((n (_ BitVec 6)) )(let ((?x63 (sc_t 0)))
 (let (($x4861 (bvsle ?x63 n)))
 (let ((?x8737 (stack_t x_0 x_1 x_2 0 n)))
 (let ((?x8646 (stack_s x_0 x_1 x_2 0 n)))
 (let (($x2657 (= ?x8646 ?x8737)))
 (or $x2657 $x4861)))))))
 ))
 (let ((?x63 (sc_t 0)))
 (let ((?x72 (sc_s 0)))
 (let (($x73 (= ?x72 ?x63)))
 (let (($x10602 (= $x886 (or (exc_halt_t 4) (not (bvsle (_ bv0 6) (bvadd (_ bv62 6) (sc_t 4))))))))
 (let (($x7274 (forall ((w (_ BitVec 256)) )(let ((?x7928 (storage_t x_0 x_1 x_2 4 w)))
 (let ((?x7782 (storage_t x_0 x_1 x_2 5 w)))
 (= ?x7782 ?x7928))))
 ))
 (let (($x9216 (forall ((n (_ BitVec 6)) )(let ((?x1476 (stack_t x_0 x_1 x_2 4 n)))
 (let ((?x5739 (stack_t x_0 x_1 x_2 5 n)))
 (or (bvsle (bvadd (_ bv62 6) (sc_t 4)) n) (= ?x5739 ?x1476)))))
 ))
 (let (($x7542 (= (used_gas_t x_0 x_1 x_2 5) (+ 3 (used_gas_t x_0 x_1 x_2 4)))))
 (let ((?x3757 (sc_t 4)))
 (let ((?x4720 (bvadd (_ bv62 6) ?x3757)))
 (let ((?x10432 (stack_t x_0 x_1 x_2 4 ?x4720)))
 (let ((?x955 (bvadd (_ bv63 6) ?x3757)))
 (let ((?x6372 (stack_t x_0 x_1 x_2 4 ?x955)))
 (let (($x272 (= (stack_t x_0 x_1 x_2 5 (bvadd (_ bv63 6) ?x919)) (ite (bvule ?x6372 ?x10432) (_ bv0 256) (_ bv1 256)))))
 (let (($x3723 (exc_halt_t 4)))
 (let (($x11354 (= $x3723 (or (exc_halt_t 3) (not (bvsle (_ bv0 6) (bvadd (_ bv60 6) (sc_t 3))))))))
 (let (($x6161 (forall ((w (_ BitVec 256)) )(let ((?x7069 (storage_t x_0 x_1 x_2 3 w)))
 (let ((?x7928 (storage_t x_0 x_1 x_2 4 w)))
 (= ?x7928 ?x7069))))
 ))
 (let (($x3571 (forall ((n (_ BitVec 6)) )(let ((?x6870 (stack_t x_0 x_1 x_2 3 n)))
 (let ((?x1476 (stack_t x_0 x_1 x_2 4 n)))
 (let (($x1046 (= ?x1476 ?x6870)))
 (or $x1046 (bvsle (bvadd (_ bv60 6) (sc_t 3)) n))))))
 ))
 (let ((?x9893 (sc_t 3)))
 (let (($x7922 (= ?x3757 ?x9893)))
 (let ((?x3057 (used_gas_t x_0 x_1 x_2 4)))
 (let (($x8463 (= ?x3057 (+ 3 (used_gas_t x_0 x_1 x_2 3)))))
 (let (($x10382 (= (stack_t x_0 x_1 x_2 4 (bvadd (_ bv61 6) ?x3757)) (stack_t x_0 x_1 x_2 3 (bvadd (_ bv61 6) ?x9893)))))
 (let ((?x9862 (bvadd (_ bv63 6) ?x9893)))
 (let ((?x6065 (stack_t x_0 x_1 x_2 3 ?x9862)))
 (let (($x9517 (not (= ((_ extract 6 6) (bvadd (_ bv1 7) (concat (_ bv0 1) (sc_t 2)))) (_ bv0 1)))))
 (let (($x903 (exc_halt_t 2)))
 (let (($x3892 (exc_halt_t 3)))
 (let (($x7496 (forall ((w (_ BitVec 256)) )(let ((?x10949 (storage_t x_0 x_1 x_2 2 w)))
 (let ((?x7069 (storage_t x_0 x_1 x_2 3 w)))
 (= ?x7069 ?x10949))))
 ))
 (let (($x4150 (forall ((n (_ BitVec 6)) )(let ((?x7193 (stack_t x_0 x_1 x_2 2 n)))
 (let ((?x6870 (stack_t x_0 x_1 x_2 3 n)))
 (let (($x3661 (= ?x6870 ?x7193)))
 (or $x3661 (bvsle (bvadd (_ bv59 6) (sc_t 2)) n))))))
 ))
 (let (($x7792 (= ?x9893 (bvadd (_ bv1 6) (sc_t 2)))))
 (let ((?x9618 (used_gas_t x_0 x_1 x_2 3)))
 (let ((?x4056 (sc_t 2)))
 (let ((?x4363 (bvadd (_ bv63 6) ?x4056)))
 (let ((?x10678 (stack_t x_0 x_1 x_2 2 ?x4363)))
 (let (($x3158 (= (stack_t x_0 x_1 x_2 3 (bvadd (_ bv62 6) ?x4056)) (stack_t x_0 x_1 x_2 2 (bvadd (_ bv62 6) ?x4056)))))
 (let (($x6527 (= (stack_t x_0 x_1 x_2 3 (bvadd (_ bv61 6) ?x4056)) (stack_t x_0 x_1 x_2 2 (bvadd (_ bv61 6) ?x4056)))))
 (let (($x8752 (= (stack_t x_0 x_1 x_2 3 (bvadd (_ bv60 6) ?x4056)) (stack_t x_0 x_1 x_2 2 (bvadd (_ bv60 6) ?x4056)))))
 (let ((?x7411 (bvadd (_ bv59 6) ?x4056)))
 (let ((?x1957 (stack_t x_0 x_1 x_2 2 ?x7411)))
 (let (($x9991 (not (= ((_ extract 6 6) (bvadd (_ bv1 7) (concat (_ bv0 1) (sc_t 1)))) (_ bv0 1)))))
 (let (($x4165 (not (bvsle (_ bv0 6) (bvadd (_ bv63 6) (sc_t 1))))))
 (let (($x1920 (exc_halt_t 1)))
 (let (($x2320 (forall ((w (_ BitVec 256)) )(let ((?x2500 (storage_t x_0 x_1 x_2 1 w)))
 (let ((?x10949 (storage_t x_0 x_1 x_2 2 w)))
 (= ?x10949 ?x2500))))
 ))
 (let (($x3541 (forall ((n (_ BitVec 6)) )(let ((?x5461 (stack_t x_0 x_1 x_2 1 n)))
 (let ((?x7193 (stack_t x_0 x_1 x_2 2 n)))
 (or (= ?x7193 ?x5461) (bvsle (bvadd (_ bv63 6) (sc_t 1)) n)))))
 ))
 (let (($x4596 (= ?x4056 (bvadd (_ bv1 6) (sc_t 1)))))
 (let ((?x5910 (used_gas_t x_0 x_1 x_2 2)))
 (let ((?x4023 (sc_t 1)))
 (let ((?x1224 (bvadd (_ bv63 6) ?x4023)))
 (let ((?x1278 (stack_t x_0 x_1 x_2 1 ?x1224)))
 (let (($x1231 (not (= ((_ extract 6 6) (bvadd (_ bv1 7) (concat (_ bv0 1) ?x63))) (_ bv0 1)))))
 (let (($x9387 (= $x1920 (or $x56 $x1231 (not (bvsle (_ bv0 6) (bvadd (_ bv62 6) ?x63)))))))
 (let (($x4749 (forall ((w (_ BitVec 256)) )(let ((?x6896 (storage_t x_0 x_1 x_2 0 w)))
 (let ((?x2500 (storage_t x_0 x_1 x_2 1 w)))
 (= ?x2500 ?x6896))))
 ))
 (let (($x4592 (forall ((n (_ BitVec 6)) )(let ((?x63 (sc_t 0)))
 (let ((?x8305 (bvadd (_ bv62 6) ?x63)))
 (let (($x9662 (bvsle ?x8305 n)))
 (let ((?x8737 (stack_t x_0 x_1 x_2 0 n)))
 (let ((?x5461 (stack_t x_0 x_1 x_2 1 n)))
 (let (($x7750 (= ?x5461 ?x8737)))
 (or $x7750 $x9662))))))))
 ))
 (let (($x7726 (= ?x4023 (bvadd (_ bv1 6) ?x63))))
 (let ((?x448 (used_gas_t x_0 x_1 x_2 1)))
 (let (($x11640 (= ?x448 (+ 3 ?x11698))))
 (let ((?x5546 (bvadd (_ bv63 6) ?x63)))
 (let ((?x8318 (stack_t x_0 x_1 x_2 0 ?x5546)))
 (let ((?x8305 (bvadd (_ bv62 6) ?x63)))
 (let ((?x9430 (stack_t x_0 x_1 x_2 0 ?x8305)))
 (let (($x3165 (= $x772 (or (exc_halt_s 5) (not (bvsle (_ bv0 6) (bvadd (_ bv62 6) (sc_s 5))))))))
 (let (($x4806 (forall ((w (_ BitVec 256)) )(let ((?x7312 (storage_s x_0 x_1 x_2 5 w)))
 (let ((?x2156 (storage_s x_0 x_1 x_2 6 w)))
 (= ?x2156 ?x7312))))
 ))
 (let (($x3303 (forall ((n (_ BitVec 6)) )(let ((?x805 (sc_s 5)))
 (let ((?x6982 (bvadd (_ bv62 6) ?x805)))
 (let (($x7942 (bvsle ?x6982 n)))
 (let ((?x2415 (stack_s x_0 x_1 x_2 5 n)))
 (let ((?x7643 (stack_s x_0 x_1 x_2 6 n)))
 (or (= ?x7643 ?x2415) $x7942)))))))
 ))
 (let ((?x805 (sc_s 5)))
 (let ((?x5075 (bvadd (_ bv63 6) ?x805)))
 (let (($x2754 (= ?x926 ?x5075)))
 (let (($x2099 (= (used_gas_s x_0 x_1 x_2 6) (+ 3 (used_gas_s x_0 x_1 x_2 5)))))
 (let ((?x9295 (stack_s x_0 x_1 x_2 5 ?x5075)))
 (let ((?x7159 (ite (bvule (stack_s x_0 x_1 x_2 5 (bvadd (_ bv62 6) ?x805)) ?x9295) (_ bv0 256) (_ bv1 256))))
 (let (($x64 (exc_halt_s 4)))
 (let (($x3614 (or $x64 (not (bvsle (_ bv0 6) (bvadd (_ bv62 6) (sc_s 4)))) (not (= ((_ extract 6 6) (bvadd (_ bv1 7) (concat (_ bv0 1) (sc_s 4)))) (_ bv0 1))))))
 (let (($x3979 (exc_halt_s 5)))
 (let (($x8643 (= $x3979 $x3614)))
 (let (($x1911 (forall ((w (_ BitVec 256)) )(let ((?x11263 (storage_s x_0 x_1 x_2 4 w)))
 (let ((?x7312 (storage_s x_0 x_1 x_2 5 w)))
 (= ?x7312 ?x11263))))
 ))
 (let (($x2689 (forall ((n (_ BitVec 6)) )(let ((?x8775 (stack_s x_0 x_1 x_2 4 n)))
 (let ((?x2415 (stack_s x_0 x_1 x_2 5 n)))
 (let (($x10250 (= ?x2415 ?x8775)))
 (let ((?x4305 (sc_s 4)))
 (let ((?x7198 (bvadd (_ bv62 6) ?x4305)))
 (let (($x2513 (bvsle ?x7198 n)))
 (or $x2513 $x10250))))))))
 ))
 (let (($x8155 (= ?x805 (bvadd (_ bv1 6) (sc_s 4)))))
 (let ((?x4622 (used_gas_s x_0 x_1 x_2 5)))
 (let ((?x4305 (sc_s 4)))
 (let ((?x4576 (bvadd (_ bv63 6) ?x4305)))
 (let ((?x8133 (stack_s x_0 x_1 x_2 4 ?x4576)))
 (let ((?x7198 (bvadd (_ bv62 6) ?x4305)))
 (let ((?x4127 (stack_s x_0 x_1 x_2 4 ?x7198)))
 (let (($x4829 (= $x64 (or (exc_halt_s 3) (not (bvsle (_ bv0 6) (bvadd (_ bv62 6) (sc_s 3))))))))
 (let (($x8088 (forall ((w (_ BitVec 256)) )(let ((?x6914 (storage_s x_0 x_1 x_2 3 w)))
 (let ((?x11263 (storage_s x_0 x_1 x_2 4 w)))
 (= ?x11263 ?x6914))))
 ))
 (let (($x2452 (forall ((n (_ BitVec 6)) )(let ((?x275 (sc_s 3)))
 (let ((?x9858 (bvadd (_ bv62 6) ?x275)))
 (let (($x10835 (bvsle ?x9858 n)))
 (let ((?x2676 (stack_s x_0 x_1 x_2 3 n)))
 (let ((?x8775 (stack_s x_0 x_1 x_2 4 n)))
 (let (($x3904 (= ?x8775 ?x2676)))
 (or $x3904 $x10835))))))))
 ))
 (let ((?x275 (sc_s 3)))
 (let (($x8104 (= ?x4305 ?x275)))
 (let ((?x9961 (used_gas_s x_0 x_1 x_2 4)))
 (let (($x10467 (= ?x9961 (+ 3 (used_gas_s x_0 x_1 x_2 3)))))
 (let (($x397 (not (= ((_ extract 6 6) (bvadd (_ bv1 7) (concat (_ bv0 1) (sc_s 2)))) (_ bv0 1)))))
 (let (($x247 (exc_halt_s 2)))
 (let (($x292 (exc_halt_s 3)))
 (let (($x7081 (forall ((w (_ BitVec 256)) )(let ((?x4260 (storage_s x_0 x_1 x_2 2 w)))
 (let ((?x6914 (storage_s x_0 x_1 x_2 3 w)))
 (= ?x6914 ?x4260))))
 ))
 (let (($x7430 (forall ((n (_ BitVec 6)) )(let ((?x1667 (stack_s x_0 x_1 x_2 2 n)))
 (let ((?x2676 (stack_s x_0 x_1 x_2 3 n)))
 (let (($x7602 (= ?x2676 ?x1667)))
 (or (bvsle (bvadd (_ bv61 6) (sc_s 2)) n) $x7602)))))
 ))
 (let (($x5832 (= ?x275 (bvadd (_ bv1 6) (sc_s 2)))))
 (let ((?x4825 (used_gas_s x_0 x_1 x_2 3)))
 (let (($x10235 (= ?x4825 (+ 3 (used_gas_s x_0 x_1 x_2 2)))))
 (let ((?x218 (sc_s 2)))
 (let ((?x9274 (bvadd (_ bv63 6) ?x218)))
 (let ((?x4323 (stack_s x_0 x_1 x_2 2 ?x9274)))
 (let (($x1702 (= (stack_s x_0 x_1 x_2 3 ?x9274) ?x4323)))
 (let ((?x4288 (bvadd (_ bv62 6) ?x218)))
 (let ((?x6657 (stack_s x_0 x_1 x_2 2 ?x4288)))
 (let ((?x10621 (bvadd (_ bv61 6) ?x218)))
 (let ((?x10186 (stack_s x_0 x_1 x_2 2 ?x10621)))
 (let (($x9930 (= $x247 (or (exc_halt_s 1) (not (bvsle (_ bv0 6) (bvadd (_ bv62 6) (sc_s 1))))))))
 (let (($x2179 (forall ((w (_ BitVec 256)) )(let ((?x8520 (storage_s x_0 x_1 x_2 1 w)))
 (let ((?x4260 (storage_s x_0 x_1 x_2 2 w)))
 (= ?x4260 ?x8520))))
 ))
 (let (($x6498 (forall ((n (_ BitVec 6)) )(let ((?x8881 (stack_s x_0 x_1 x_2 1 n)))
 (let ((?x1667 (stack_s x_0 x_1 x_2 2 n)))
 (let (($x10227 (= ?x1667 ?x8881)))
 (let ((?x154 (sc_s 1)))
 (let ((?x11305 (bvadd (_ bv62 6) ?x154)))
 (let (($x9046 (bvsle ?x11305 n)))
 (or $x9046 $x10227))))))))
 ))
 (let ((?x154 (sc_s 1)))
 (let (($x4713 (= ?x218 ?x154)))
 (let ((?x10019 (used_gas_s x_0 x_1 x_2 2)))
 (let (($x7701 (not (= ((_ extract 6 6) (bvadd (_ bv1 7) (concat (_ bv0 1) ?x72))) (_ bv0 1)))))
 (let (($x189 (exc_halt_s 1)))
 (let (($x10241 (forall ((w (_ BitVec 256)) )(let ((?x4071 (storage_s x_0 x_1 x_2 0 w)))
 (let ((?x8520 (storage_s x_0 x_1 x_2 1 w)))
 (= ?x8520 ?x4071))))
 ))
 (let (($x3977 (forall ((n (_ BitVec 6)) )(let ((?x8646 (stack_s x_0 x_1 x_2 0 n)))
 (let ((?x8881 (stack_s x_0 x_1 x_2 1 n)))
 (let (($x1065 (= ?x8881 ?x8646)))
 (or $x1065 (bvsle (bvadd (_ bv61 6) (sc_s 0)) n))))))
 ))
 (let (($x7777 (= ?x154 (bvadd (_ bv1 6) ?x72))))
 (let ((?x10424 (used_gas_s x_0 x_1 x_2 1)))
 (let (($x7038 (= ?x10424 (+ 3 ?x1263))))
 (let ((?x2305 (bvadd (_ bv63 6) ?x72)))
 (let ((?x857 (stack_s x_0 x_1 x_2 0 ?x2305)))
 (let ((?x7740 (bvadd (_ bv62 6) ?x72)))
 (let ((?x4584 (stack_s x_0 x_1 x_2 0 ?x7740)))
 (let ((?x7313 (bvadd (_ bv61 6) ?x72)))
 (let ((?x9777 (stack_s x_0 x_1 x_2 0 ?x7313)))
 (let (($x8085 (forall ((w (_ BitVec 256)) )(let ((?x4071 (storage_s x_0 x_1 x_2 0 w)))
 (= ?x4071 (_ bv0 256))))
 ))
 (let (($x2232 (= ?x1263 0)))
 (let (($x5326 (not $x57)))
 (let (($x5738 (= (stack_s x_0 x_1 x_2 0 (_ bv2 6)) x_2)))
 (let (($x10319 (= (stack_s x_0 x_1 x_2 0 (_ bv1 6)) x_1)))
 (let (($x5273 (= (stack_s x_0 x_1 x_2 0 (_ bv0 6)) x_0)))
 (let (($x6815 (= ?x72 (_ bv3 6))))
 (and $x6815 $x5273 $x10319 $x5738 $x5326 $x2232 $x8085 (= (stack_s x_0 x_1 x_2 1 (bvadd (_ bv63 6) ?x154)) ?x9777) (= (stack_s x_0 x_1 x_2 1 ?x7313) ?x9777) (= (stack_s x_0 x_1 x_2 1 ?x7740) ?x4584) (= (stack_s x_0 x_1 x_2 1 ?x2305) ?x857) $x7038 $x7777 $x3977 $x10241 (= $x189 (or $x57 $x7701 (not (bvsle (_ bv0 6) ?x7313)))) (= ?x4323 (stack_s x_0 x_1 x_2 1 (bvadd (_ bv62 6) ?x154))) (= ?x6657 (stack_s x_0 x_1 x_2 1 (bvadd (_ bv63 6) ?x154))) (= ?x10019 (+ 3 ?x10424)) $x4713 $x6498 $x2179 $x9930 (= (stack_s x_0 x_1 x_2 3 (bvadd (_ bv63 6) ?x275)) ?x10186) (= (stack_s x_0 x_1 x_2 3 ?x10621) ?x10186) (= (stack_s x_0 x_1 x_2 3 ?x4288) ?x6657) $x1702 $x10235 $x5832 $x7430 $x7081 (= $x292 (or $x247 $x397 (not (bvsle (_ bv0 6) ?x10621)))) (= ?x8133 (stack_s x_0 x_1 x_2 3 (bvadd (_ bv62 6) ?x275))) (= ?x4127 (stack_s x_0 x_1 x_2 3 (bvadd (_ bv63 6) ?x275))) $x10467 $x8104 $x2452 $x8088 $x4829 (= ?x9295 ?x4127) (= (stack_s x_0 x_1 x_2 5 ?x7198) ?x4127) (= (stack_s x_0 x_1 x_2 5 ?x4576) ?x8133) (= ?x4622 (+ 3 ?x9961)) $x8155 $x2689 $x1911 $x8643 (= (stack_s x_0 x_1 x_2 6 (bvadd (_ bv63 6) ?x926)) ?x7159) $x2099 $x2754 $x3303 $x4806 $x3165 (= ?x1278 ?x9430) (= (stack_t x_0 x_1 x_2 1 ?x8305) ?x9430) (= (stack_t x_0 x_1 x_2 1 ?x5546) ?x8318) $x11640 $x7726 $x4592 $x4749 $x9387 (= ?x10678 ?x1278) (= (stack_t x_0 x_1 x_2 2 ?x1224) ?x1278) (= ?x5910 (+ 3 ?x448)) $x4596 $x3541 $x2320 (= $x903 (or $x1920 $x4165 $x9991)) (= ?x6065 ?x1957) (= (stack_t x_0 x_1 x_2 3 ?x7411) ?x1957) $x8752 $x6527 $x3158 (= (stack_t x_0 x_1 x_2 3 ?x4363) ?x10678) (= ?x9618 (+ 3 ?x5910)) $x7792 $x4150 $x7496 (= $x3892 (or $x903 (not (bvsle (_ bv0 6) ?x7411)) $x9517)) (= ?x6372 (stack_t x_0 x_1 x_2 3 (bvadd (_ bv60 6) ?x9893))) (= (stack_t x_0 x_1 x_2 4 (bvadd (_ bv60 6) ?x3757)) ?x6065) $x10382 (= ?x10432 (stack_t x_0 x_1 x_2 3 (bvadd (_ bv62 6) ?x9893))) $x8463 $x7922 $x3571 $x6161 $x11354 $x272 $x7542 (= ?x919 ?x955) $x9216 $x7274 $x10602 $x73 $x3034 $x58 $x8352 $x6506 (not (and $x929 $x4602 $x889 $x2858)))))))))))))))))))))))))))))))))))))))))))))))))))))))))))))))))))))))))))))))))))))))))))))))))))))))))))))))))))))))))))))))))))))))))))))))))))))))
 )
(check-sat)
(get-proof)
